Normalized Data/p02_110_tsplib0_normalized_splitx10_0.vrp
NAME:p02_110_tsplib0_NORMALIZED_splitx10_
BEST_KNOWN: 0
COMMENT: 0
DIMENSION: 182
CAPACITY: 1000
EDGE_WEIGHT_FORMAT: FUNCTION
EDGE_WEIGHT_TYPE: EXACT_2D
NODE_COORD_SECTION
1 0.00000 0.00000
2 -18 -18
3 -18 -18
4 -18 -18
5 -18 -18
6 -4 -14
7 -4 -14
8 -4 -14
9 -4 -14
10 -19 5
11 -19 5
12 5 -5
13 15 -20
14 15 -20
15 15 -20
16 15 -20
17 -7 -6
18 -7 -6
19 -7 -6
20 -7 -6
21 10 10
22 15 5
23 -14 19
24 -14 19
25 15 25
26 15 25
27 15 25
28 -5 11
29 -5 11
30 -5 11
31 -5 11
32 22 -5
33 22 17
34 22 -16
35 22 -16
36 22 -16
37 -19 -4
38 -19 -4
39 -7 4
40 -31 16
41 22 8
42 22 8
43 22 8
44 22 8
45 26 -26
46 4 -27
47 -14 -27
48 -14 -27
49 -29 -12
50 -29 -12
51 -33 3
52 -23 24
53 -23 24
54 -23 24
55 1 6
56 1 6
57 1 6
58 -5 -24
59 -5 -24
60 -5 -24
61 12 -14
62 3 -14
63 -9 36
64 -9 36
65 -9 36
66 -9 36
67 -18 13
68 -18 13
69 -18 13
70 -14 -11
71 -14 -11
72 -14 -11
73 10 0
74 10 0
75 15 10
76 15 10
77 15 10
78 15 10
79 14 -30
80 20 -25
81 20 -25
82 20 -25
83 7 26
84 -10 20
85 -10 10
86 -10 10
87 -10 10
88 -28 -23
89 -28 -23
90 -24 -21
91 -24 -21
92 -19 8
93 -19 8
94 10 -10
95 10 -10
96 10 -10
97 10 -10
98 11 2
99 11 2
100 10 -25
101 8 -19
102 8 -19
103 8 -19
104 8 -19
105 -28 -2
106 -28 -2
107 -28 -2
108 -25 16
109 -25 16
110 -11 -1
111 -11 -1
112 14 -2
113 14 -2
114 27 1
115 27 1
116 27 1
117 27 1
118 -30 30
119 -30 30
120 -30 30
121 -34 -15
122 -34 -15
123 -34 -15
124 25 -13
125 25 -13
126 25 -13
127 0 20
128 0 20
129 0 20
130 30 24
131 30 24
132 30 24
133 30 24
134 24 -36
135 24 -36
136 24 -36
137 -4 -34
138 -4 -34
139 -4 -34
140 -4 -34
141 -10 -20
142 -10 -20
143 -20 -10
144 -20 -10
145 -20 -10
146 -25 -35
147 -25 -35
148 10 30
149 10 30
150 10 30
151 17 32
152 5 2
153 5 2
154 5 2
155 5 2
156 -2 -7
157 10 -36
158 10 -36
159 10 -36
160 10 -36
161 10 -36
162 26 -32
163 26 -32
164 26 -32
165 26 -32
166 19 -35
167 19 -35
168 19 -35
169 19 -35
170 19 -35
171 -5 20
172 -5 20
173 -5 20
174 -5 20
175 -13 -16
176 -13 -16
177 -13 -16
178 0 -20
179 0 -20
180 0 -20
181 0 -20
182 0 -20
DEMAND_SECTION
1 0
2 50
3 10
4 10
5 10
6 10
7 10
8 10
9 10
10 10
11 10
12 50
13 50
14 10
15 10
16 10
17 50
18 10
19 10
20 10
21 50
22 10
23 10
24 10
25 50
26 10
27 10
28 10
29 10
30 10
31 10
32 50
33 50
34 50
35 10
36 10
37 10
38 10
39 10
40 50
41 50
42 10
43 10
44 10
45 50
46 10
47 50
48 10
49 50
50 10
51 50
52 50
53 10
54 10
55 50
56 10
57 10
58 50
59 10
60 10
61 10
62 10
63 50
64 10
65 10
66 10
67 50
68 10
69 10
70 50
71 10
72 10
73 10
74 10
75 50
76 10
77 10
78 10
79 50
80 50
81 10
82 10
83 50
84 50
85 50
86 10
87 10
88 10
89 10
90 50
91 10
92 50
93 10
94 50
95 10
96 10
97 10
98 10
99 10
100 50
101 10
102 10
103 10
104 10
105 50
106 10
107 10
108 50
109 10
110 50
111 10
112 50
113 10
114 50
115 10
116 10
117 10
118 50
119 10
120 10
121 50
122 10
123 10
124 10
125 10
126 10
127 50
128 10
129 10
130 10
131 10
132 10
133 10
134 10
135 10
136 10
137 50
138 10
139 10
140 10
141 10
142 10
143 10
144 10
145 10
146 10
147 10
148 10
149 10
150 10
151 50
152 50
153 10
154 10
155 10
156 10
157 50
158 10
159 10
160 10
161 10
162 50
163 10
164 10
165 10
166 50
167 10
168 10
169 10
170 10
171 50
172 10
173 10
174 10
175 50
176 10
177 10
178 50
179 10
180 10
181 10
182 10
DEPOT_SECTION
1
-1
EOF