Normalized Data/p02_110_tsplib0_normalized_splitx10_0.sol
181 -11 96 94 93 95 60 14 12 15 13 78 156 157 160 159 158 169 168 165 166 167 135 134 133 161 164 162 163 44 80 81 79 35 34 33 124 123 125 31 115 116 114 113 111 112 72 73 -17 19 16 18 110 109 36 37 106 105 104 50 39 108 107 53 51 52 117 119 118 63 62 64 65 172 170 171 173 83 23 22 68 66 67 92 91 10 9 85 86 84 38 -55 54 56 28 30 27 29 126 127 128 82 147 148 149 150 26 25 24 132 129 131 130 32 43 42 40 41 77 76 75 74 20 21 98 97 151 154 152 153 -61 103 102 101 100 99 45 137 138 139 136 47 46 146 145 88 87 90 89 121 122 120 48 49 143 144 142 70 71 69 1 3 2 4 174 175 176 141 140 57 58 59 177 181 178 180 179 6 7 8 5 155 0 





OBJ=
592.337
BEST_KNOWN=
0.000